50
     3    55    12    31    90     2    27     7     1    57     5    87    28    59    83    17    83    88    70    36    92    65    34    72    95    51    14    43    51    46    12    60    31    94    96    21    25    77    99    18    35    19    20    32    83    85    26    36     2    78
     4     6     1     1     6     4     5     5     2     7     8     1     4     7     7     1     8     5     6     4     4     5     8     6     9     4    10     2     2    10     3     2     9     5     3     5     9     1     2     6     7     4     3     8     1    10     8    10     6     9
  1788   978  2636  2413  1776  2490  1760  1611  2357  1245  1884  2403  2376  1500  2242  2321  2405  1628  2050   977  2442  2290  2460  2124  2448  2382  1902  1608  1930  1559  1798  2585  2356  1824  1910  1598  1094  2529  2286  1914  1352  1970  2372  1481  2359  1784  1076  2500  1775  1021
